45
81
68
67
45
63
70
75
71
64
105
59
112
62
99
52
59
140
78
104
77
64
87
231
164
0
101
46
60
71
43
191
50
91
102
0
156
194
91
72
138
77
36
0
61
77
60
76
72
91
97
0
83
52
54
53
107
63
74
76
0
75
36
115
56
55
69
56
52
58
63
76
57
61
57
64
68
50
53
68
73
205
70
67
74
43
64
62
0
76
60
0
0
60
35
42
63
97
87
109
